(set-option :produce-models true)
(declare-fun iniMes_mes0_aceite0 () Int)
(declare-fun comprado_mes0_aceite0 () Int)
(declare-fun refinado_mes0_aceite0 () Int)
(declare-fun iniMes_mes0_aceite1 () Int)
(declare-fun comprado_mes0_aceite1 () Int)
(declare-fun refinado_mes0_aceite1 () Int)
(declare-fun iniMes_mes0_aceite2 () Int)
(declare-fun comprado_mes0_aceite2 () Int)
(declare-fun refinado_mes0_aceite2 () Int)
(declare-fun iniMes_mes0_aceite3 () Int)
(declare-fun comprado_mes0_aceite3 () Int)
(declare-fun refinado_mes0_aceite3 () Int)
(declare-fun iniMes_mes0_aceite4 () Int)
(declare-fun comprado_mes0_aceite4 () Int)
(declare-fun refinado_mes0_aceite4 () Int)
(declare-fun iniMes_mes1_aceite0 () Int)
(declare-fun comprado_mes1_aceite0 () Int)
(declare-fun refinado_mes1_aceite0 () Int)
(declare-fun iniMes_mes1_aceite1 () Int)
(declare-fun comprado_mes1_aceite1 () Int)
(declare-fun refinado_mes1_aceite1 () Int)
(declare-fun iniMes_mes1_aceite2 () Int)
(declare-fun comprado_mes1_aceite2 () Int)
(declare-fun refinado_mes1_aceite2 () Int)
(declare-fun iniMes_mes1_aceite3 () Int)
(declare-fun comprado_mes1_aceite3 () Int)
(declare-fun refinado_mes1_aceite3 () Int)
(declare-fun iniMes_mes1_aceite4 () Int)
(declare-fun comprado_mes1_aceite4 () Int)
(declare-fun refinado_mes1_aceite4 () Int)
(declare-fun iniMes_mes2_aceite0 () Int)
(declare-fun comprado_mes2_aceite0 () Int)
(declare-fun refinado_mes2_aceite0 () Int)
(declare-fun iniMes_mes2_aceite1 () Int)
(declare-fun comprado_mes2_aceite1 () Int)
(declare-fun refinado_mes2_aceite1 () Int)
(declare-fun iniMes_mes2_aceite2 () Int)
(declare-fun comprado_mes2_aceite2 () Int)
(declare-fun refinado_mes2_aceite2 () Int)
(declare-fun iniMes_mes2_aceite3 () Int)
(declare-fun comprado_mes2_aceite3 () Int)
(declare-fun refinado_mes2_aceite3 () Int)
(declare-fun iniMes_mes2_aceite4 () Int)
(declare-fun comprado_mes2_aceite4 () Int)
(declare-fun refinado_mes2_aceite4 () Int)
(declare-fun iniMes_mes3_aceite0 () Int)
(declare-fun comprado_mes3_aceite0 () Int)
(declare-fun refinado_mes3_aceite0 () Int)
(declare-fun iniMes_mes3_aceite1 () Int)
(declare-fun comprado_mes3_aceite1 () Int)
(declare-fun refinado_mes3_aceite1 () Int)
(declare-fun iniMes_mes3_aceite2 () Int)
(declare-fun comprado_mes3_aceite2 () Int)
(declare-fun refinado_mes3_aceite2 () Int)
(declare-fun iniMes_mes3_aceite3 () Int)
(declare-fun comprado_mes3_aceite3 () Int)
(declare-fun refinado_mes3_aceite3 () Int)
(declare-fun iniMes_mes3_aceite4 () Int)
(declare-fun comprado_mes3_aceite4 () Int)
(declare-fun refinado_mes3_aceite4 () Int)
(declare-fun iniMes_mes4_aceite0 () Int)
(declare-fun comprado_mes4_aceite0 () Int)
(declare-fun refinado_mes4_aceite0 () Int)
(declare-fun iniMes_mes4_aceite1 () Int)
(declare-fun comprado_mes4_aceite1 () Int)
(declare-fun refinado_mes4_aceite1 () Int)
(declare-fun iniMes_mes4_aceite2 () Int)
(declare-fun comprado_mes4_aceite2 () Int)
(declare-fun refinado_mes4_aceite2 () Int)
(declare-fun iniMes_mes4_aceite3 () Int)
(declare-fun comprado_mes4_aceite3 () Int)
(declare-fun refinado_mes4_aceite3 () Int)
(declare-fun iniMes_mes4_aceite4 () Int)
(declare-fun comprado_mes4_aceite4 () Int)
(declare-fun refinado_mes4_aceite4 () Int)
(declare-fun iniMes_mes5_aceite0 () Int)
(declare-fun comprado_mes5_aceite0 () Int)
(declare-fun refinado_mes5_aceite0 () Int)
(declare-fun iniMes_mes5_aceite1 () Int)
(declare-fun comprado_mes5_aceite1 () Int)
(declare-fun refinado_mes5_aceite1 () Int)
(declare-fun iniMes_mes5_aceite2 () Int)
(declare-fun comprado_mes5_aceite2 () Int)
(declare-fun refinado_mes5_aceite2 () Int)
(declare-fun iniMes_mes5_aceite3 () Int)
(declare-fun comprado_mes5_aceite3 () Int)
(declare-fun refinado_mes5_aceite3 () Int)
(declare-fun iniMes_mes5_aceite4 () Int)
(declare-fun comprado_mes5_aceite4 () Int)
(declare-fun refinado_mes5_aceite4 () Int)
(declare-fun totalRefinado_mes0 () Int)
(declare-fun totalRefinado_mes1 () Int)
(declare-fun totalRefinado_mes2 () Int)
(declare-fun totalRefinado_mes3 () Int)
(declare-fun totalRefinado_mes4 () Int)
(declare-fun totalRefinado_mes5 () Int)
(declare-fun ganancias () Int)
(declare-fun costeAlmacMes () Int)
(declare-fun costeAceiteCompra () Int)
(declare-fun costes () Int)
(declare-fun beneficio () Int)
(assert (<= 0 iniMes_mes0_aceite0 ) )
(assert (<= iniMes_mes0_aceite0 1500 ) )
(assert (<= 0 comprado_mes0_aceite0 ) )
(assert (<= comprado_mes0_aceite0 1500 ) )
(assert (<= 0 refinado_mes0_aceite0 ) )
(assert (<= refinado_mes0_aceite0 1500 ) )
(assert (<= 0 iniMes_mes0_aceite1 ) )
(assert (<= iniMes_mes0_aceite1 1500 ) )
(assert (<= 0 comprado_mes0_aceite1 ) )
(assert (<= comprado_mes0_aceite1 1500 ) )
(assert (<= 0 refinado_mes0_aceite1 ) )
(assert (<= refinado_mes0_aceite1 1500 ) )
(assert (<= 0 iniMes_mes0_aceite2 ) )
(assert (<= iniMes_mes0_aceite2 1500 ) )
(assert (<= 0 comprado_mes0_aceite2 ) )
(assert (<= comprado_mes0_aceite2 1500 ) )
(assert (<= 0 refinado_mes0_aceite2 ) )
(assert (<= refinado_mes0_aceite2 1500 ) )
(assert (<= 0 iniMes_mes0_aceite3 ) )
(assert (<= iniMes_mes0_aceite3 1500 ) )
(assert (<= 0 comprado_mes0_aceite3 ) )
(assert (<= comprado_mes0_aceite3 1500 ) )
(assert (<= 0 refinado_mes0_aceite3 ) )
(assert (<= refinado_mes0_aceite3 1500 ) )
(assert (<= 0 iniMes_mes0_aceite4 ) )
(assert (<= iniMes_mes0_aceite4 1500 ) )
(assert (<= 0 comprado_mes0_aceite4 ) )
(assert (<= comprado_mes0_aceite4 1500 ) )
(assert (<= 0 refinado_mes0_aceite4 ) )
(assert (<= refinado_mes0_aceite4 1500 ) )
(assert (<= 0 iniMes_mes1_aceite0 ) )
(assert (<= iniMes_mes1_aceite0 1500 ) )
(assert (<= 0 comprado_mes1_aceite0 ) )
(assert (<= comprado_mes1_aceite0 1500 ) )
(assert (<= 0 refinado_mes1_aceite0 ) )
(assert (<= refinado_mes1_aceite0 1500 ) )
(assert (<= 0 iniMes_mes1_aceite1 ) )
(assert (<= iniMes_mes1_aceite1 1500 ) )
(assert (<= 0 comprado_mes1_aceite1 ) )
(assert (<= comprado_mes1_aceite1 1500 ) )
(assert (<= 0 refinado_mes1_aceite1 ) )
(assert (<= refinado_mes1_aceite1 1500 ) )
(assert (<= 0 iniMes_mes1_aceite2 ) )
(assert (<= iniMes_mes1_aceite2 1500 ) )
(assert (<= 0 comprado_mes1_aceite2 ) )
(assert (<= comprado_mes1_aceite2 1500 ) )
(assert (<= 0 refinado_mes1_aceite2 ) )
(assert (<= refinado_mes1_aceite2 1500 ) )
(assert (<= 0 iniMes_mes1_aceite3 ) )
(assert (<= iniMes_mes1_aceite3 1500 ) )
(assert (<= 0 comprado_mes1_aceite3 ) )
(assert (<= comprado_mes1_aceite3 1500 ) )
(assert (<= 0 refinado_mes1_aceite3 ) )
(assert (<= refinado_mes1_aceite3 1500 ) )
(assert (<= 0 iniMes_mes1_aceite4 ) )
(assert (<= iniMes_mes1_aceite4 1500 ) )
(assert (<= 0 comprado_mes1_aceite4 ) )
(assert (<= comprado_mes1_aceite4 1500 ) )
(assert (<= 0 refinado_mes1_aceite4 ) )
(assert (<= refinado_mes1_aceite4 1500 ) )
(assert (<= 0 iniMes_mes2_aceite0 ) )
(assert (<= iniMes_mes2_aceite0 1500 ) )
(assert (<= 0 comprado_mes2_aceite0 ) )
(assert (<= comprado_mes2_aceite0 1500 ) )
(assert (<= 0 refinado_mes2_aceite0 ) )
(assert (<= refinado_mes2_aceite0 1500 ) )
(assert (<= 0 iniMes_mes2_aceite1 ) )
(assert (<= iniMes_mes2_aceite1 1500 ) )
(assert (<= 0 comprado_mes2_aceite1 ) )
(assert (<= comprado_mes2_aceite1 1500 ) )
(assert (<= 0 refinado_mes2_aceite1 ) )
(assert (<= refinado_mes2_aceite1 1500 ) )
(assert (<= 0 iniMes_mes2_aceite2 ) )
(assert (<= iniMes_mes2_aceite2 1500 ) )
(assert (<= 0 comprado_mes2_aceite2 ) )
(assert (<= comprado_mes2_aceite2 1500 ) )
(assert (<= 0 refinado_mes2_aceite2 ) )
(assert (<= refinado_mes2_aceite2 1500 ) )
(assert (<= 0 iniMes_mes2_aceite3 ) )
(assert (<= iniMes_mes2_aceite3 1500 ) )
(assert (<= 0 comprado_mes2_aceite3 ) )
(assert (<= comprado_mes2_aceite3 1500 ) )
(assert (<= 0 refinado_mes2_aceite3 ) )
(assert (<= refinado_mes2_aceite3 1500 ) )
(assert (<= 0 iniMes_mes2_aceite4 ) )
(assert (<= iniMes_mes2_aceite4 1500 ) )
(assert (<= 0 comprado_mes2_aceite4 ) )
(assert (<= comprado_mes2_aceite4 1500 ) )
(assert (<= 0 refinado_mes2_aceite4 ) )
(assert (<= refinado_mes2_aceite4 1500 ) )
(assert (<= 0 iniMes_mes3_aceite0 ) )
(assert (<= iniMes_mes3_aceite0 1500 ) )
(assert (<= 0 comprado_mes3_aceite0 ) )
(assert (<= comprado_mes3_aceite0 1500 ) )
(assert (<= 0 refinado_mes3_aceite0 ) )
(assert (<= refinado_mes3_aceite0 1500 ) )
(assert (<= 0 iniMes_mes3_aceite1 ) )
(assert (<= iniMes_mes3_aceite1 1500 ) )
(assert (<= 0 comprado_mes3_aceite1 ) )
(assert (<= comprado_mes3_aceite1 1500 ) )
(assert (<= 0 refinado_mes3_aceite1 ) )
(assert (<= refinado_mes3_aceite1 1500 ) )
(assert (<= 0 iniMes_mes3_aceite2 ) )
(assert (<= iniMes_mes3_aceite2 1500 ) )
(assert (<= 0 comprado_mes3_aceite2 ) )
(assert (<= comprado_mes3_aceite2 1500 ) )
(assert (<= 0 refinado_mes3_aceite2 ) )
(assert (<= refinado_mes3_aceite2 1500 ) )
(assert (<= 0 iniMes_mes3_aceite3 ) )
(assert (<= iniMes_mes3_aceite3 1500 ) )
(assert (<= 0 comprado_mes3_aceite3 ) )
(assert (<= comprado_mes3_aceite3 1500 ) )
(assert (<= 0 refinado_mes3_aceite3 ) )
(assert (<= refinado_mes3_aceite3 1500 ) )
(assert (<= 0 iniMes_mes3_aceite4 ) )
(assert (<= iniMes_mes3_aceite4 1500 ) )
(assert (<= 0 comprado_mes3_aceite4 ) )
(assert (<= comprado_mes3_aceite4 1500 ) )
(assert (<= 0 refinado_mes3_aceite4 ) )
(assert (<= refinado_mes3_aceite4 1500 ) )
(assert (<= 0 iniMes_mes4_aceite0 ) )
(assert (<= iniMes_mes4_aceite0 1500 ) )
(assert (<= 0 comprado_mes4_aceite0 ) )
(assert (<= comprado_mes4_aceite0 1500 ) )
(assert (<= 0 refinado_mes4_aceite0 ) )
(assert (<= refinado_mes4_aceite0 1500 ) )
(assert (<= 0 iniMes_mes4_aceite1 ) )
(assert (<= iniMes_mes4_aceite1 1500 ) )
(assert (<= 0 comprado_mes4_aceite1 ) )
(assert (<= comprado_mes4_aceite1 1500 ) )
(assert (<= 0 refinado_mes4_aceite1 ) )
(assert (<= refinado_mes4_aceite1 1500 ) )
(assert (<= 0 iniMes_mes4_aceite2 ) )
(assert (<= iniMes_mes4_aceite2 1500 ) )
(assert (<= 0 comprado_mes4_aceite2 ) )
(assert (<= comprado_mes4_aceite2 1500 ) )
(assert (<= 0 refinado_mes4_aceite2 ) )
(assert (<= refinado_mes4_aceite2 1500 ) )
(assert (<= 0 iniMes_mes4_aceite3 ) )
(assert (<= iniMes_mes4_aceite3 1500 ) )
(assert (<= 0 comprado_mes4_aceite3 ) )
(assert (<= comprado_mes4_aceite3 1500 ) )
(assert (<= 0 refinado_mes4_aceite3 ) )
(assert (<= refinado_mes4_aceite3 1500 ) )
(assert (<= 0 iniMes_mes4_aceite4 ) )
(assert (<= iniMes_mes4_aceite4 1500 ) )
(assert (<= 0 comprado_mes4_aceite4 ) )
(assert (<= comprado_mes4_aceite4 1500 ) )
(assert (<= 0 refinado_mes4_aceite4 ) )
(assert (<= refinado_mes4_aceite4 1500 ) )
(assert (<= 0 iniMes_mes5_aceite0 ) )
(assert (<= iniMes_mes5_aceite0 1500 ) )
(assert (<= 0 comprado_mes5_aceite0 ) )
(assert (<= comprado_mes5_aceite0 1500 ) )
(assert (<= 0 refinado_mes5_aceite0 ) )
(assert (<= refinado_mes5_aceite0 1500 ) )
(assert (<= 0 iniMes_mes5_aceite1 ) )
(assert (<= iniMes_mes5_aceite1 1500 ) )
(assert (<= 0 comprado_mes5_aceite1 ) )
(assert (<= comprado_mes5_aceite1 1500 ) )
(assert (<= 0 refinado_mes5_aceite1 ) )
(assert (<= refinado_mes5_aceite1 1500 ) )
(assert (<= 0 iniMes_mes5_aceite2 ) )
(assert (<= iniMes_mes5_aceite2 1500 ) )
(assert (<= 0 comprado_mes5_aceite2 ) )
(assert (<= comprado_mes5_aceite2 1500 ) )
(assert (<= 0 refinado_mes5_aceite2 ) )
(assert (<= refinado_mes5_aceite2 1500 ) )
(assert (<= 0 iniMes_mes5_aceite3 ) )
(assert (<= iniMes_mes5_aceite3 1500 ) )
(assert (<= 0 comprado_mes5_aceite3 ) )
(assert (<= comprado_mes5_aceite3 1500 ) )
(assert (<= 0 refinado_mes5_aceite3 ) )
(assert (<= refinado_mes5_aceite3 1500 ) )
(assert (<= 0 iniMes_mes5_aceite4 ) )
(assert (<= iniMes_mes5_aceite4 1500 ) )
(assert (<= 0 comprado_mes5_aceite4 ) )
(assert (<= comprado_mes5_aceite4 1500 ) )
(assert (<= 0 refinado_mes5_aceite4 ) )
(assert (<= refinado_mes5_aceite4 1500 ) )
(assert (<= 0 totalRefinado_mes0 ) )
(assert (<= totalRefinado_mes0 7500 ) )
(assert (<= 0 totalRefinado_mes1 ) )
(assert (<= totalRefinado_mes1 7500 ) )
(assert (<= 0 totalRefinado_mes2 ) )
(assert (<= totalRefinado_mes2 7500 ) )
(assert (<= 0 totalRefinado_mes3 ) )
(assert (<= totalRefinado_mes3 7500 ) )
(assert (<= 0 totalRefinado_mes4 ) )
(assert (<= totalRefinado_mes4 7500 ) )
(assert (<= 0 totalRefinado_mes5 ) )
(assert (<= totalRefinado_mes5 7500 ) )
(assert (= iniMes_mes0_aceite0 500 ) )
(assert (= iniMes_mes0_aceite1 500 ) )
(assert (= iniMes_mes0_aceite2 500 ) )
(assert (= iniMes_mes0_aceite3 500 ) )
(assert (= iniMes_mes0_aceite4 500 ) )
(assert (= 500 (- (+ iniMes_mes5_aceite0 comprado_mes5_aceite0 ) refinado_mes5_aceite0 ) ) )
(assert (= 500 (- (+ iniMes_mes5_aceite1 comprado_mes5_aceite1 ) refinado_mes5_aceite1 ) ) )
(assert (= 500 (- (+ iniMes_mes5_aceite2 comprado_mes5_aceite2 ) refinado_mes5_aceite2 ) ) )
(assert (= 500 (- (+ iniMes_mes5_aceite3 comprado_mes5_aceite3 ) refinado_mes5_aceite3 ) ) )
(assert (= 500 (- (+ iniMes_mes5_aceite4 comprado_mes5_aceite4 ) refinado_mes5_aceite4 ) ) )
(assert (= iniMes_mes1_aceite0 (- (+ iniMes_mes0_aceite0 comprado_mes0_aceite0 ) refinado_mes0_aceite0 ) ) )
(assert (= iniMes_mes1_aceite1 (- (+ iniMes_mes0_aceite1 comprado_mes0_aceite1 ) refinado_mes0_aceite1 ) ) )
(assert (= iniMes_mes1_aceite2 (- (+ iniMes_mes0_aceite2 comprado_mes0_aceite2 ) refinado_mes0_aceite2 ) ) )
(assert (= iniMes_mes1_aceite3 (- (+ iniMes_mes0_aceite3 comprado_mes0_aceite3 ) refinado_mes0_aceite3 ) ) )
(assert (= iniMes_mes1_aceite4 (- (+ iniMes_mes0_aceite4 comprado_mes0_aceite4 ) refinado_mes0_aceite4 ) ) )
(assert (= iniMes_mes2_aceite0 (- (+ iniMes_mes1_aceite0 comprado_mes1_aceite0 ) refinado_mes1_aceite0 ) ) )
(assert (= iniMes_mes2_aceite1 (- (+ iniMes_mes1_aceite1 comprado_mes1_aceite1 ) refinado_mes1_aceite1 ) ) )
(assert (= iniMes_mes2_aceite2 (- (+ iniMes_mes1_aceite2 comprado_mes1_aceite2 ) refinado_mes1_aceite2 ) ) )
(assert (= iniMes_mes2_aceite3 (- (+ iniMes_mes1_aceite3 comprado_mes1_aceite3 ) refinado_mes1_aceite3 ) ) )
(assert (= iniMes_mes2_aceite4 (- (+ iniMes_mes1_aceite4 comprado_mes1_aceite4 ) refinado_mes1_aceite4 ) ) )
(assert (= iniMes_mes3_aceite0 (- (+ iniMes_mes2_aceite0 comprado_mes2_aceite0 ) refinado_mes2_aceite0 ) ) )
(assert (= iniMes_mes3_aceite1 (- (+ iniMes_mes2_aceite1 comprado_mes2_aceite1 ) refinado_mes2_aceite1 ) ) )
(assert (= iniMes_mes3_aceite2 (- (+ iniMes_mes2_aceite2 comprado_mes2_aceite2 ) refinado_mes2_aceite2 ) ) )
(assert (= iniMes_mes3_aceite3 (- (+ iniMes_mes2_aceite3 comprado_mes2_aceite3 ) refinado_mes2_aceite3 ) ) )
(assert (= iniMes_mes3_aceite4 (- (+ iniMes_mes2_aceite4 comprado_mes2_aceite4 ) refinado_mes2_aceite4 ) ) )
(assert (= iniMes_mes4_aceite0 (- (+ iniMes_mes3_aceite0 comprado_mes3_aceite0 ) refinado_mes3_aceite0 ) ) )
(assert (= iniMes_mes4_aceite1 (- (+ iniMes_mes3_aceite1 comprado_mes3_aceite1 ) refinado_mes3_aceite1 ) ) )
(assert (= iniMes_mes4_aceite2 (- (+ iniMes_mes3_aceite2 comprado_mes3_aceite2 ) refinado_mes3_aceite2 ) ) )
(assert (= iniMes_mes4_aceite3 (- (+ iniMes_mes3_aceite3 comprado_mes3_aceite3 ) refinado_mes3_aceite3 ) ) )
(assert (= iniMes_mes4_aceite4 (- (+ iniMes_mes3_aceite4 comprado_mes3_aceite4 ) refinado_mes3_aceite4 ) ) )
(assert (= iniMes_mes5_aceite0 (- (+ iniMes_mes4_aceite0 comprado_mes4_aceite0 ) refinado_mes4_aceite0 ) ) )
(assert (= iniMes_mes5_aceite1 (- (+ iniMes_mes4_aceite1 comprado_mes4_aceite1 ) refinado_mes4_aceite1 ) ) )
(assert (= iniMes_mes5_aceite2 (- (+ iniMes_mes4_aceite2 comprado_mes4_aceite2 ) refinado_mes4_aceite2 ) ) )
(assert (= iniMes_mes5_aceite3 (- (+ iniMes_mes4_aceite3 comprado_mes4_aceite3 ) refinado_mes4_aceite3 ) ) )
(assert (= iniMes_mes5_aceite4 (- (+ iniMes_mes4_aceite4 comprado_mes4_aceite4 ) refinado_mes4_aceite4 ) ) )
(assert (<= (+ refinado_mes0_aceite1 refinado_mes0_aceite0 ) 200 ) )
(assert (<= (+ refinado_mes1_aceite1 refinado_mes1_aceite0 ) 200 ) )
(assert (<= (+ refinado_mes2_aceite1 refinado_mes2_aceite0 ) 200 ) )
(assert (<= (+ refinado_mes3_aceite1 refinado_mes3_aceite0 ) 200 ) )
(assert (<= (+ refinado_mes4_aceite1 refinado_mes4_aceite0 ) 200 ) )
(assert (<= (+ refinado_mes5_aceite1 refinado_mes5_aceite0 ) 200 ) )
(assert (<= (+ refinado_mes0_aceite4 (+ refinado_mes0_aceite3 refinado_mes0_aceite2 ) ) 250 ) )
(assert (<= (+ refinado_mes1_aceite4 (+ refinado_mes1_aceite3 refinado_mes1_aceite2 ) ) 250 ) )
(assert (<= (+ refinado_mes2_aceite4 (+ refinado_mes2_aceite3 refinado_mes2_aceite2 ) ) 250 ) )
(assert (<= (+ refinado_mes3_aceite4 (+ refinado_mes3_aceite3 refinado_mes3_aceite2 ) ) 250 ) )
(assert (<= (+ refinado_mes4_aceite4 (+ refinado_mes4_aceite3 refinado_mes4_aceite2 ) ) 250 ) )
(assert (<= (+ refinado_mes5_aceite4 (+ refinado_mes5_aceite3 refinado_mes5_aceite2 ) ) 250 ) )
(assert (<= (+ comprado_mes0_aceite0 iniMes_mes0_aceite0 ) 1500 ) )
(assert (<= (+ comprado_mes0_aceite1 iniMes_mes0_aceite1 ) 1500 ) )
(assert (<= (+ comprado_mes0_aceite2 iniMes_mes0_aceite2 ) 1500 ) )
(assert (<= (+ comprado_mes0_aceite3 iniMes_mes0_aceite3 ) 1500 ) )
(assert (<= (+ comprado_mes0_aceite4 iniMes_mes0_aceite4 ) 1500 ) )
(assert (<= (+ comprado_mes1_aceite0 iniMes_mes1_aceite0 ) 1500 ) )
(assert (<= (+ comprado_mes1_aceite1 iniMes_mes1_aceite1 ) 1500 ) )
(assert (<= (+ comprado_mes1_aceite2 iniMes_mes1_aceite2 ) 1500 ) )
(assert (<= (+ comprado_mes1_aceite3 iniMes_mes1_aceite3 ) 1500 ) )
(assert (<= (+ comprado_mes1_aceite4 iniMes_mes1_aceite4 ) 1500 ) )
(assert (<= (+ comprado_mes2_aceite0 iniMes_mes2_aceite0 ) 1500 ) )
(assert (<= (+ comprado_mes2_aceite1 iniMes_mes2_aceite1 ) 1500 ) )
(assert (<= (+ comprado_mes2_aceite2 iniMes_mes2_aceite2 ) 1500 ) )
(assert (<= (+ comprado_mes2_aceite3 iniMes_mes2_aceite3 ) 1500 ) )
(assert (<= (+ comprado_mes2_aceite4 iniMes_mes2_aceite4 ) 1500 ) )
(assert (<= (+ comprado_mes3_aceite0 iniMes_mes3_aceite0 ) 1500 ) )
(assert (<= (+ comprado_mes3_aceite1 iniMes_mes3_aceite1 ) 1500 ) )
(assert (<= (+ comprado_mes3_aceite2 iniMes_mes3_aceite2 ) 1500 ) )
(assert (<= (+ comprado_mes3_aceite3 iniMes_mes3_aceite3 ) 1500 ) )
(assert (<= (+ comprado_mes3_aceite4 iniMes_mes3_aceite4 ) 1500 ) )
(assert (<= (+ comprado_mes4_aceite0 iniMes_mes4_aceite0 ) 1500 ) )
(assert (<= (+ comprado_mes4_aceite1 iniMes_mes4_aceite1 ) 1500 ) )
(assert (<= (+ comprado_mes4_aceite2 iniMes_mes4_aceite2 ) 1500 ) )
(assert (<= (+ comprado_mes4_aceite3 iniMes_mes4_aceite3 ) 1500 ) )
(assert (<= (+ comprado_mes4_aceite4 iniMes_mes4_aceite4 ) 1500 ) )
(assert (<= (+ comprado_mes5_aceite0 iniMes_mes5_aceite0 ) 1500 ) )
(assert (<= (+ comprado_mes5_aceite1 iniMes_mes5_aceite1 ) 1500 ) )
(assert (<= (+ comprado_mes5_aceite2 iniMes_mes5_aceite2 ) 1500 ) )
(assert (<= (+ comprado_mes5_aceite3 iniMes_mes5_aceite3 ) 1500 ) )
(assert (<= (+ comprado_mes5_aceite4 iniMes_mes5_aceite4 ) 1500 ) )
(assert (= totalRefinado_mes0 (+ refinado_mes0_aceite4 (+ refinado_mes0_aceite3 (+ refinado_mes0_aceite2 (+ refinado_mes0_aceite1 refinado_mes0_aceite0 ) ) ) ) ) )
(assert (= totalRefinado_mes1 (+ refinado_mes1_aceite4 (+ refinado_mes1_aceite3 (+ refinado_mes1_aceite2 (+ refinado_mes1_aceite1 refinado_mes1_aceite0 ) ) ) ) ) )
(assert (= totalRefinado_mes2 (+ refinado_mes2_aceite4 (+ refinado_mes2_aceite3 (+ refinado_mes2_aceite2 (+ refinado_mes2_aceite1 refinado_mes2_aceite0 ) ) ) ) ) )
(assert (= totalRefinado_mes3 (+ refinado_mes3_aceite4 (+ refinado_mes3_aceite3 (+ refinado_mes3_aceite2 (+ refinado_mes3_aceite1 refinado_mes3_aceite0 ) ) ) ) ) )
(assert (= totalRefinado_mes4 (+ refinado_mes4_aceite4 (+ refinado_mes4_aceite3 (+ refinado_mes4_aceite2 (+ refinado_mes4_aceite1 refinado_mes4_aceite0 ) ) ) ) ) )
(assert (= totalRefinado_mes5 (+ refinado_mes5_aceite4 (+ refinado_mes5_aceite3 (+ refinado_mes5_aceite2 (+ refinado_mes5_aceite1 refinado_mes5_aceite0 ) ) ) ) ) )
(assert (<= (+ (* refinado_mes0_aceite4 5.2 ) (+ (* refinado_mes0_aceite3 4.8 ) (+ (* refinado_mes0_aceite2 2.9 ) (+ (* refinado_mes0_aceite1 6.1 ) (* refinado_mes0_aceite0 8.3 ) ) ) ) ) (* totalRefinado_mes0 7 ) ) )
(assert (>= (+ (* refinado_mes0_aceite4 5.2 ) (+ (* refinado_mes0_aceite3 4.8 ) (+ (* refinado_mes0_aceite2 2.9 ) (+ (* refinado_mes0_aceite1 6.1 ) (* refinado_mes0_aceite0 8.3 ) ) ) ) ) (* totalRefinado_mes0 3 ) ) )
(assert (<= (+ (* refinado_mes1_aceite4 5.2 ) (+ (* refinado_mes1_aceite3 4.8 ) (+ (* refinado_mes1_aceite2 2.9 ) (+ (* refinado_mes1_aceite1 6.1 ) (* refinado_mes1_aceite0 8.3 ) ) ) ) ) (* totalRefinado_mes1 7 ) ) )
(assert (>= (+ (* refinado_mes1_aceite4 5.2 ) (+ (* refinado_mes1_aceite3 4.8 ) (+ (* refinado_mes1_aceite2 2.9 ) (+ (* refinado_mes1_aceite1 6.1 ) (* refinado_mes1_aceite0 8.3 ) ) ) ) ) (* totalRefinado_mes1 3 ) ) )
(assert (<= (+ (* refinado_mes2_aceite4 5.2 ) (+ (* refinado_mes2_aceite3 4.8 ) (+ (* refinado_mes2_aceite2 2.9 ) (+ (* refinado_mes2_aceite1 6.1 ) (* refinado_mes2_aceite0 8.3 ) ) ) ) ) (* totalRefinado_mes2 7 ) ) )
(assert (>= (+ (* refinado_mes2_aceite4 5.2 ) (+ (* refinado_mes2_aceite3 4.8 ) (+ (* refinado_mes2_aceite2 2.9 ) (+ (* refinado_mes2_aceite1 6.1 ) (* refinado_mes2_aceite0 8.3 ) ) ) ) ) (* totalRefinado_mes2 3 ) ) )
(assert (<= (+ (* refinado_mes3_aceite4 5.2 ) (+ (* refinado_mes3_aceite3 4.8 ) (+ (* refinado_mes3_aceite2 2.9 ) (+ (* refinado_mes3_aceite1 6.1 ) (* refinado_mes3_aceite0 8.3 ) ) ) ) ) (* totalRefinado_mes3 7 ) ) )
(assert (>= (+ (* refinado_mes3_aceite4 5.2 ) (+ (* refinado_mes3_aceite3 4.8 ) (+ (* refinado_mes3_aceite2 2.9 ) (+ (* refinado_mes3_aceite1 6.1 ) (* refinado_mes3_aceite0 8.3 ) ) ) ) ) (* totalRefinado_mes3 3 ) ) )
(assert (<= (+ (* refinado_mes4_aceite4 5.2 ) (+ (* refinado_mes4_aceite3 4.8 ) (+ (* refinado_mes4_aceite2 2.9 ) (+ (* refinado_mes4_aceite1 6.1 ) (* refinado_mes4_aceite0 8.3 ) ) ) ) ) (* totalRefinado_mes4 7 ) ) )
(assert (>= (+ (* refinado_mes4_aceite4 5.2 ) (+ (* refinado_mes4_aceite3 4.8 ) (+ (* refinado_mes4_aceite2 2.9 ) (+ (* refinado_mes4_aceite1 6.1 ) (* refinado_mes4_aceite0 8.3 ) ) ) ) ) (* totalRefinado_mes4 3 ) ) )
(assert (<= (+ (* refinado_mes5_aceite4 5.2 ) (+ (* refinado_mes5_aceite3 4.8 ) (+ (* refinado_mes5_aceite2 2.9 ) (+ (* refinado_mes5_aceite1 6.1 ) (* refinado_mes5_aceite0 8.3 ) ) ) ) ) (* totalRefinado_mes5 7 ) ) )
(assert (>= (+ (* refinado_mes5_aceite4 5.2 ) (+ (* refinado_mes5_aceite3 4.8 ) (+ (* refinado_mes5_aceite2 2.9 ) (+ (* refinado_mes5_aceite1 6.1 ) (* refinado_mes5_aceite0 8.3 ) ) ) ) ) (* totalRefinado_mes5 3 ) ) )
(assert (= ganancias (* 250 (+ refinado_mes5_aceite4 (+ refinado_mes5_aceite3 (+ refinado_mes5_aceite2 (+ refinado_mes5_aceite1 (+ refinado_mes5_aceite0 (+ refinado_mes4_aceite4 (+ refinado_mes4_aceite3 (+ refinado_mes4_aceite2 (+ refinado_mes4_aceite1 (+ refinado_mes4_aceite0 (+ refinado_mes3_aceite4 (+ refinado_mes3_aceite3 (+ refinado_mes3_aceite2 (+ refinado_mes3_aceite1 (+ refinado_mes3_aceite0 (+ refinado_mes2_aceite4 (+ refinado_mes2_aceite3 (+ refinado_mes2_aceite2 (+ refinado_mes2_aceite1 (+ refinado_mes2_aceite0 (+ refinado_mes1_aceite4 (+ refinado_mes1_aceite3 (+ refinado_mes1_aceite2 (+ refinado_mes1_aceite1 (+ refinado_mes1_aceite0 (+ refinado_mes0_aceite4 (+ refinado_mes0_aceite3 (+ refinado_mes0_aceite2 (+ refinado_mes0_aceite1 refinado_mes0_aceite0 ) ) ) ) ) ) ) ) ) ) ) ) ) ) ) ) ) ) ) ) ) ) ) ) ) ) ) ) ) ) ) )
(assert (= costeAlmacMes (* 5 (+ iniMes_mes5_aceite4 (+ iniMes_mes5_aceite3 (+ iniMes_mes5_aceite2 (+ iniMes_mes5_aceite1 (+ iniMes_mes5_aceite0 (+ iniMes_mes4_aceite4 (+ iniMes_mes4_aceite3 (+ iniMes_mes4_aceite2 (+ iniMes_mes4_aceite1 (+ iniMes_mes4_aceite0 (+ iniMes_mes3_aceite4 (+ iniMes_mes3_aceite3 (+ iniMes_mes3_aceite2 (+ iniMes_mes3_aceite1 (+ iniMes_mes3_aceite0 (+ iniMes_mes2_aceite4 (+ iniMes_mes2_aceite3 (+ iniMes_mes2_aceite2 (+ iniMes_mes2_aceite1 (+ iniMes_mes2_aceite0 (+ iniMes_mes1_aceite4 (+ iniMes_mes1_aceite3 (+ iniMes_mes1_aceite2 (+ iniMes_mes1_aceite1 iniMes_mes1_aceite0 ) ) ) ) ) ) ) ) ) ) ) ) ) ) ) ) ) ) ) ) ) ) ) ) ) ) )
(assert (= costeAceiteCompra (+ (* comprado_mes5_aceite4 135 ) (+ (* comprado_mes5_aceite3 80 ) (+ (* comprado_mes5_aceite2 140 ) (+ (* comprado_mes5_aceite1 100 ) (+ (* comprado_mes5_aceite0 90 ) (+ (* comprado_mes4_aceite4 105 ) (+ (* comprado_mes4_aceite3 110 ) (+ (* comprado_mes4_aceite2 150 ) (+ (* comprado_mes4_aceite1 120 ) (+ (* comprado_mes4_aceite0 100 ) (+ (* comprado_mes3_aceite4 125 ) (+ (* comprado_mes3_aceite3 120 ) (+ (* comprado_mes3_aceite2 120 ) (+ (* comprado_mes3_aceite1 110 ) (+ (* comprado_mes3_aceite0 120 ) (+ (* comprado_mes2_aceite4 95 ) (+ (* comprado_mes2_aceite3 100 ) (+ (* comprado_mes2_aceite2 130 ) (+ (* comprado_mes2_aceite1 140 ) (+ (* comprado_mes2_aceite0 110 ) (+ (* comprado_mes1_aceite4 115 ) (+ (* comprado_mes1_aceite3 90 ) (+ (* comprado_mes1_aceite2 110 ) (+ (* comprado_mes1_aceite1 130 ) (+ (* comprado_mes1_aceite0 130 ) (+ (* comprado_mes0_aceite4 115 ) (+ (* comprado_mes0_aceite3 110 ) (+ (* comprado_mes0_aceite2 130 ) (+ (* comprado_mes0_aceite1 120 ) (* comprado_mes0_aceite0 110 ) ) ) ) ) ) ) ) ) ) ) ) ) ) ) ) ) ) ) ) ) ) ) ) ) ) ) ) ) ) ) )
(assert (= costes (+ 12500 (+ costeAceiteCompra costeAlmacMes ) ) ) )
(assert (= beneficio (- ganancias costes ) ) )
(assert (<= (+ (ite (> refinado_mes0_aceite4 0 ) 1 0 ) (+ (ite (> refinado_mes0_aceite3 0 ) 1 0 ) (+ (ite (> refinado_mes0_aceite2 0 ) 1 0 ) (+ (ite (> refinado_mes0_aceite1 0 ) 1 0 ) (+ (ite (> refinado_mes0_aceite0 0 ) 1 0 ) refinado_mes5_aceite2 ) ) ) ) ) 2 ) )
(assert (<= (+ (ite (> refinado_mes1_aceite4 0 ) 1 0 ) (+ (ite (> refinado_mes1_aceite3 0 ) 1 0 ) (+ (ite (> refinado_mes1_aceite2 0 ) 1 0 ) (+ (ite (> refinado_mes1_aceite1 0 ) 1 0 ) (+ (ite (> refinado_mes1_aceite0 0 ) 1 0 ) refinado_mes5_aceite2 ) ) ) ) ) 2 ) )
(assert (<= (+ (ite (> refinado_mes2_aceite4 0 ) 1 0 ) (+ (ite (> refinado_mes2_aceite3 0 ) 1 0 ) (+ (ite (> refinado_mes2_aceite2 0 ) 1 0 ) (+ (ite (> refinado_mes2_aceite1 0 ) 1 0 ) (+ (ite (> refinado_mes2_aceite0 0 ) 1 0 ) refinado_mes5_aceite2 ) ) ) ) ) 2 ) )
(assert (<= (+ (ite (> refinado_mes3_aceite4 0 ) 1 0 ) (+ (ite (> refinado_mes3_aceite3 0 ) 1 0 ) (+ (ite (> refinado_mes3_aceite2 0 ) 1 0 ) (+ (ite (> refinado_mes3_aceite1 0 ) 1 0 ) (+ (ite (> refinado_mes3_aceite0 0 ) 1 0 ) refinado_mes5_aceite2 ) ) ) ) ) 2 ) )
(assert (<= (+ (ite (> refinado_mes4_aceite4 0 ) 1 0 ) (+ (ite (> refinado_mes4_aceite3 0 ) 1 0 ) (+ (ite (> refinado_mes4_aceite2 0 ) 1 0 ) (+ (ite (> refinado_mes4_aceite1 0 ) 1 0 ) (+ (ite (> refinado_mes4_aceite0 0 ) 1 0 ) refinado_mes5_aceite2 ) ) ) ) ) 2 ) )
(assert (<= (+ (ite (> refinado_mes5_aceite4 0 ) 1 0 ) (+ (ite (> refinado_mes5_aceite3 0 ) 1 0 ) (+ (ite (> refinado_mes5_aceite2 0 ) 1 0 ) (+ (ite (> refinado_mes5_aceite1 0 ) 1 0 ) (+ (ite (> refinado_mes5_aceite0 0 ) 1 0 ) refinado_mes5_aceite2 ) ) ) ) ) 2 ) )
(assert (=> (> refinado_mes0_aceite0 0 ) (>= refinado_mes0_aceite0 0 ) ) )
(assert (=> (> refinado_mes0_aceite1 0 ) (>= refinado_mes0_aceite1 0 ) ) )
(assert (=> (> refinado_mes0_aceite2 0 ) (>= refinado_mes0_aceite2 0 ) ) )
(assert (=> (> refinado_mes0_aceite3 0 ) (>= refinado_mes0_aceite3 0 ) ) )
(assert (=> (> refinado_mes0_aceite4 0 ) (>= refinado_mes0_aceite4 0 ) ) )
(assert (=> (> refinado_mes1_aceite0 0 ) (>= refinado_mes1_aceite0 0 ) ) )
(assert (=> (> refinado_mes1_aceite1 0 ) (>= refinado_mes1_aceite1 0 ) ) )
(assert (=> (> refinado_mes1_aceite2 0 ) (>= refinado_mes1_aceite2 0 ) ) )
(assert (=> (> refinado_mes1_aceite3 0 ) (>= refinado_mes1_aceite3 0 ) ) )
(assert (=> (> refinado_mes1_aceite4 0 ) (>= refinado_mes1_aceite4 0 ) ) )
(assert (=> (> refinado_mes2_aceite0 0 ) (>= refinado_mes2_aceite0 0 ) ) )
(assert (=> (> refinado_mes2_aceite1 0 ) (>= refinado_mes2_aceite1 0 ) ) )
(assert (=> (> refinado_mes2_aceite2 0 ) (>= refinado_mes2_aceite2 0 ) ) )
(assert (=> (> refinado_mes2_aceite3 0 ) (>= refinado_mes2_aceite3 0 ) ) )
(assert (=> (> refinado_mes2_aceite4 0 ) (>= refinado_mes2_aceite4 0 ) ) )
(assert (=> (> refinado_mes3_aceite0 0 ) (>= refinado_mes3_aceite0 0 ) ) )
(assert (=> (> refinado_mes3_aceite1 0 ) (>= refinado_mes3_aceite1 0 ) ) )
(assert (=> (> refinado_mes3_aceite2 0 ) (>= refinado_mes3_aceite2 0 ) ) )
(assert (=> (> refinado_mes3_aceite3 0 ) (>= refinado_mes3_aceite3 0 ) ) )
(assert (=> (> refinado_mes3_aceite4 0 ) (>= refinado_mes3_aceite4 0 ) ) )
(assert (=> (> refinado_mes4_aceite0 0 ) (>= refinado_mes4_aceite0 0 ) ) )
(assert (=> (> refinado_mes4_aceite1 0 ) (>= refinado_mes4_aceite1 0 ) ) )
(assert (=> (> refinado_mes4_aceite2 0 ) (>= refinado_mes4_aceite2 0 ) ) )
(assert (=> (> refinado_mes4_aceite3 0 ) (>= refinado_mes4_aceite3 0 ) ) )
(assert (=> (> refinado_mes4_aceite4 0 ) (>= refinado_mes4_aceite4 0 ) ) )
(assert (=> (> refinado_mes5_aceite0 0 ) (>= refinado_mes5_aceite0 0 ) ) )
(assert (=> (> refinado_mes5_aceite1 0 ) (>= refinado_mes5_aceite1 0 ) ) )
(assert (=> (> refinado_mes5_aceite2 0 ) (>= refinado_mes5_aceite2 0 ) ) )
(assert (=> (> refinado_mes5_aceite3 0 ) (>= refinado_mes5_aceite3 0 ) ) )
(assert (=> (> refinado_mes5_aceite4 0 ) (>= refinado_mes5_aceite4 0 ) ) )
(assert (=> (> refinado_mes0_aceite0 0 ) (> refinado_mes0_aceite2 0 ) ) )
(assert (=> (> refinado_mes1_aceite0 0 ) (> refinado_mes1_aceite2 0 ) ) )
(assert (=> (> refinado_mes2_aceite0 0 ) (> refinado_mes2_aceite2 0 ) ) )
(assert (=> (> refinado_mes3_aceite0 0 ) (> refinado_mes3_aceite2 0 ) ) )
(assert (=> (> refinado_mes4_aceite0 0 ) (> refinado_mes4_aceite2 0 ) ) )
(assert (=> (> refinado_mes5_aceite0 0 ) (> refinado_mes5_aceite2 0 ) ) )
(assert (<= 150 (+ comprado_mes5_aceite0 (+ comprado_mes4_aceite0 (+ comprado_mes3_aceite0 (+ comprado_mes2_aceite0 (+ comprado_mes1_aceite0 comprado_mes0_aceite0 ) ) ) ) ) ) )
(assert (<= 120 (+ comprado_mes5_aceite1 (+ comprado_mes4_aceite1 (+ comprado_mes3_aceite1 (+ comprado_mes2_aceite1 (+ comprado_mes1_aceite1 comprado_mes0_aceite1 ) ) ) ) ) ) )
(assert (<= 200 (+ comprado_mes5_aceite2 (+ comprado_mes4_aceite2 (+ comprado_mes3_aceite2 (+ comprado_mes2_aceite2 (+ comprado_mes1_aceite2 comprado_mes0_aceite2 ) ) ) ) ) ) )
(assert (<= 100 (+ comprado_mes5_aceite3 (+ comprado_mes4_aceite3 (+ comprado_mes3_aceite3 (+ comprado_mes2_aceite3 (+ comprado_mes1_aceite3 comprado_mes0_aceite3 ) ) ) ) ) ) )
(assert (<= 100 (+ comprado_mes5_aceite4 (+ comprado_mes4_aceite4 (+ comprado_mes3_aceite4 (+ comprado_mes2_aceite4 (+ comprado_mes1_aceite4 comprado_mes0_aceite4 ) ) ) ) ) ) )
(assert (<= 300 (+ refinado_mes0_aceite4 (+ refinado_mes0_aceite3 (+ refinado_mes0_aceite2 (+ refinado_mes0_aceite1 refinado_mes0_aceite0 ) ) ) ) ) )
(assert (<= 300 (+ refinado_mes1_aceite4 (+ refinado_mes1_aceite3 (+ refinado_mes1_aceite2 (+ refinado_mes1_aceite1 refinado_mes1_aceite0 ) ) ) ) ) )
(assert (<= 300 (+ refinado_mes2_aceite4 (+ refinado_mes2_aceite3 (+ refinado_mes2_aceite2 (+ refinado_mes2_aceite1 refinado_mes2_aceite0 ) ) ) ) ) )
(assert (<= 300 (+ refinado_mes3_aceite4 (+ refinado_mes3_aceite3 (+ refinado_mes3_aceite2 (+ refinado_mes3_aceite1 refinado_mes3_aceite0 ) ) ) ) ) )
(assert (<= 300 (+ refinado_mes4_aceite4 (+ refinado_mes4_aceite3 (+ refinado_mes4_aceite2 (+ refinado_mes4_aceite1 refinado_mes4_aceite0 ) ) ) ) ) )
(assert (<= 300 (+ refinado_mes5_aceite4 (+ refinado_mes5_aceite3 (+ refinado_mes5_aceite2 (+ refinado_mes5_aceite1 refinado_mes5_aceite0 ) ) ) ) ) )
(assert (=> (> refinado_mes0_aceite3 0 ) (= refinado_mes0_aceite4 0 ) ) )
(assert (=> (> refinado_mes0_aceite4 0 ) (= refinado_mes0_aceite3 0 ) ) )
(assert (=> (> refinado_mes1_aceite3 0 ) (= refinado_mes1_aceite4 0 ) ) )
(assert (=> (> refinado_mes1_aceite4 0 ) (= refinado_mes1_aceite3 0 ) ) )
(assert (=> (> refinado_mes2_aceite3 0 ) (= refinado_mes2_aceite4 0 ) ) )
(assert (=> (> refinado_mes2_aceite4 0 ) (= refinado_mes2_aceite3 0 ) ) )
(assert (=> (> refinado_mes3_aceite3 0 ) (= refinado_mes3_aceite4 0 ) ) )
(assert (=> (> refinado_mes3_aceite4 0 ) (= refinado_mes3_aceite3 0 ) ) )
(assert (=> (> refinado_mes4_aceite3 0 ) (= refinado_mes4_aceite4 0 ) ) )
(assert (=> (> refinado_mes4_aceite4 0 ) (= refinado_mes4_aceite3 0 ) ) )
(assert (=> (> refinado_mes5_aceite3 0 ) (= refinado_mes5_aceite4 0 ) ) )
(assert (=> (> refinado_mes5_aceite4 0 ) (= refinado_mes5_aceite3 0 ) ) )
(assert (>= beneficio 170000 ) )
(maximize beneficio)
(check-sat)
(get-objectives)
(get-value (iniMes_mes0_aceite0) )
(get-value (comprado_mes0_aceite0) )
(get-value (refinado_mes0_aceite0) )
(get-value (iniMes_mes0_aceite1) )
(get-value (comprado_mes0_aceite1) )
(get-value (refinado_mes0_aceite1) )
(get-value (iniMes_mes0_aceite2) )
(get-value (comprado_mes0_aceite2) )
(get-value (refinado_mes0_aceite2) )
(get-value (iniMes_mes0_aceite3) )
(get-value (comprado_mes0_aceite3) )
(get-value (refinado_mes0_aceite3) )
(get-value (iniMes_mes0_aceite4) )
(get-value (comprado_mes0_aceite4) )
(get-value (refinado_mes0_aceite4) )
(get-value (totalRefinado_mes0) )
(get-value (iniMes_mes1_aceite0) )
(get-value (comprado_mes1_aceite0) )
(get-value (refinado_mes1_aceite0) )
(get-value (iniMes_mes1_aceite1) )
(get-value (comprado_mes1_aceite1) )
(get-value (refinado_mes1_aceite1) )
(get-value (iniMes_mes1_aceite2) )
(get-value (comprado_mes1_aceite2) )
(get-value (refinado_mes1_aceite2) )
(get-value (iniMes_mes1_aceite3) )
(get-value (comprado_mes1_aceite3) )
(get-value (refinado_mes1_aceite3) )
(get-value (iniMes_mes1_aceite4) )
(get-value (comprado_mes1_aceite4) )
(get-value (refinado_mes1_aceite4) )
(get-value (totalRefinado_mes1) )
(get-value (iniMes_mes2_aceite0) )
(get-value (comprado_mes2_aceite0) )
(get-value (refinado_mes2_aceite0) )
(get-value (iniMes_mes2_aceite1) )
(get-value (comprado_mes2_aceite1) )
(get-value (refinado_mes2_aceite1) )
(get-value (iniMes_mes2_aceite2) )
(get-value (comprado_mes2_aceite2) )
(get-value (refinado_mes2_aceite2) )
(get-value (iniMes_mes2_aceite3) )
(get-value (comprado_mes2_aceite3) )
(get-value (refinado_mes2_aceite3) )
(get-value (iniMes_mes2_aceite4) )
(get-value (comprado_mes2_aceite4) )
(get-value (refinado_mes2_aceite4) )
(get-value (totalRefinado_mes2) )
(get-value (iniMes_mes3_aceite0) )
(get-value (comprado_mes3_aceite0) )
(get-value (refinado_mes3_aceite0) )
(get-value (iniMes_mes3_aceite1) )
(get-value (comprado_mes3_aceite1) )
(get-value (refinado_mes3_aceite1) )
(get-value (iniMes_mes3_aceite2) )
(get-value (comprado_mes3_aceite2) )
(get-value (refinado_mes3_aceite2) )
(get-value (iniMes_mes3_aceite3) )
(get-value (comprado_mes3_aceite3) )
(get-value (refinado_mes3_aceite3) )
(get-value (iniMes_mes3_aceite4) )
(get-value (comprado_mes3_aceite4) )
(get-value (refinado_mes3_aceite4) )
(get-value (totalRefinado_mes3) )
(get-value (iniMes_mes4_aceite0) )
(get-value (comprado_mes4_aceite0) )
(get-value (refinado_mes4_aceite0) )
(get-value (iniMes_mes4_aceite1) )
(get-value (comprado_mes4_aceite1) )
(get-value (refinado_mes4_aceite1) )
(get-value (iniMes_mes4_aceite2) )
(get-value (comprado_mes4_aceite2) )
(get-value (refinado_mes4_aceite2) )
(get-value (iniMes_mes4_aceite3) )
(get-value (comprado_mes4_aceite3) )
(get-value (refinado_mes4_aceite3) )
(get-value (iniMes_mes4_aceite4) )
(get-value (comprado_mes4_aceite4) )
(get-value (refinado_mes4_aceite4) )
(get-value (totalRefinado_mes4) )
(get-value (iniMes_mes5_aceite0) )
(get-value (comprado_mes5_aceite0) )
(get-value (refinado_mes5_aceite0) )
(get-value (iniMes_mes5_aceite1) )
(get-value (comprado_mes5_aceite1) )
(get-value (refinado_mes5_aceite1) )
(get-value (iniMes_mes5_aceite2) )
(get-value (comprado_mes5_aceite2) )
(get-value (refinado_mes5_aceite2) )
(get-value (iniMes_mes5_aceite3) )
(get-value (comprado_mes5_aceite3) )
(get-value (refinado_mes5_aceite3) )
(get-value (iniMes_mes5_aceite4) )
(get-value (comprado_mes5_aceite4) )
(get-value (refinado_mes5_aceite4) )
(get-value (totalRefinado_mes5) )
(get-value (beneficio) )
